(set-logic QF_SLIA)
(declare-const result String)
(declare-const attack String)
(declare-const prefix RegLan)
(declare-const infix RegLan)
(declare-const postfix RegLan)
(declare-const postfixs String)

(assert (str.in_re attack (re.++ prefix ((_ re.loop 5000 5000) infix) postfix)))
(assert (= prefix 
     (re.++  (re.union  (re.++  (str.to_re "\u{69}") (re.++  (str.to_re "\u{50}") (re.++  (str.to_re "\u{68}") (re.++  (str.to_re "\u{6f}") (re.++  (str.to_re "\u{6e}")  (str.to_re "\u{65}")))))) (re.union  (re.++  (str.to_re "\u{69}") (re.++  (str.to_re "\u{50}") (re.++  (str.to_re "\u{61}")  (str.to_re "\u{64}"))))  (re.++  (str.to_re "\u{69}") (re.++  (str.to_re "\u{50}") (re.++  (str.to_re "\u{6f}")  (str.to_re "\u{64}"))))))  (re.inter (re.* re.allchar )  (re.++   (re.union (re.union (str.to_re "\u{09}") (str.to_re "\u{0a}") (str.to_re "\u{0d}") (str.to_re " ")) (re.inter re.allchar (re.comp (re.union (str.to_re "\u{09}") (str.to_re "\u{0a}") (str.to_re "\u{0d}") (str.to_re " "))))) (re.*   (re.union (re.union (str.to_re "\u{09}") (str.to_re "\u{0a}") (str.to_re "\u{0d}") (str.to_re " ")) (re.inter re.allchar (re.comp (re.union (str.to_re "\u{09}") (str.to_re "\u{0a}") (str.to_re "\u{0d}") (str.to_re " "))))) ))))
))
(assert (= infix 
         (re.++ (re.*  (re.union  (str.to_re "\u{0a}")  (str.to_re "\u{0d}")) ) (re.++  (str.to_re "\u{26}") (re.++  (re.++ (re.*  (re.union  (str.to_re "\u{0a}")  (str.to_re "\u{0d}")) ) (re.++  (re.++  (str.to_re "\u{4d}") (re.++  (str.to_re "\u{61}") (re.++  (str.to_re "\u{63}") (re.++  (str.to_re "\u{20}") (re.++  (str.to_re "\u{4f}") (re.++  (str.to_re "\u{53}") (re.++  (str.to_re "\u{20}")  (str.to_re "\u{58}")))))))) (re.*  (re.union  (str.to_re "\u{0a}")  (str.to_re "\u{0d}")) ))) (re.++  (str.to_re "\u{26}") (re.++ (re.*  (re.union  (str.to_re "\u{0a}")  (str.to_re "\u{0d}")) ) (re.++  (str.to_re "\u{26}") (re.+ re.allchar )))))))
))
(assert (= postfix 
         (re.++  (str.to_re "\u{21}") (re.++  (str.to_re "\u{31}")  (str.to_re "\u{21}")))
))
(assert (str.in_re postfixs postfix))
(assert (>= (str.len postfixs) 1))
(assert (= result (str.++ attack postfixs)))
(check-sat)
(get-model)